data;

param v : 1 2 3 4 5 6 7 8 9 10 11 12 13 :=
	1 0  0  0  0  0  0  0  0  0  0  1  1  1 
	2 0  0  0  0  0  0  0  0  1  0  1  0  0 
	;

param g := 2;

param njeux := 13;

param qttjeux := 
	0 3
	1 3
	2 3
	3 3
	4 3
	5 1
	6 3
	7 1
	8 3
	9 1
	10 3
	11 2
	12 3;

end;